Route #1: 0 46 38 50 16 11 32 0
Route #2: 0 2 21 29 20 22 0
Route #3: 0 1 28 31 8 48 0
Route #4: 0 27 6 14 25 0
Route #5: 0 23 24 43 7 26 3 0
Route #6: 0 36 35 34 30 9 0
Route #7: 0 39 33 45 15 44 0
Route #8: 0 12 17 37 49 5 0
Route #9: 0 10 47 4 18 0
Route #10: 0 13 41 40 19 42 0
Cost 863:
